
Gurobi 11.0.0 (linux64) logging started Thu Nov 30 00:51:51 2023

Set parameter LogFile to value "wlp05-m-Location-Of-Facilities-GUROBI.txt"
Gurobi Optimizer version 11.0.0 build v11.0.0rc2 (linux64 - "Ubuntu 22.04.3 LTS")

CPU model: AMD Ryzen 7 5800H with Radeon Graphics, instruction set [SSE2|AVX|AVX2]
Thread count: 8 physical cores, 16 logical processors, using up to 16 threads

Optimize a model with 891883 rows, 890400 columns and 3559200 nonzeros
Model fingerprint: 0xe312b2e8
Coefficient statistics:
  Matrix range     [1e+00, 2e+01]
  Objective range  [1e+00, 1e+03]
  Bounds range     [1e+00, 1e+00]
  RHS range        [1e+00, 1e+02]
Presolve time: 1.75s
Presolved: 891883 rows, 890400 columns, 3559200 nonzeros

Concurrent LP optimizer: primal simplex, dual simplex, and barrier
Showing barrier log only...

Ordering time: 0.80s

Barrier statistics:
 Dense cols : 600
 AA' NZ     : 3.559e+06
 Factor NZ  : 6.783e+06 (roughly 800 MB of memory)
 Factor Ops : 5.041e+09 (less than 1 second per iteration)
 Threads    : 6

                  Objective                Residual
Iter       Primal          Dual         Primal    Dual     Compl     Time
   0   6.09907138e+06 -2.98842653e+05  1.30e+02 6.85e+01  2.71e+01     7s
   1   9.59625882e+05 -4.38388355e+05  1.97e+01 1.27e+01  4.40e+00     7s
   2   1.55581384e+05 -3.83437225e+05  4.22e-14 3.46e+00  7.71e-01     8s
   3   1.36007278e+05 -2.91127371e+04  1.07e-14 1.63e+00  1.43e-01     9s
   4   1.26270803e+05 -1.23266680e+04  7.99e-15 2.43e-01  1.03e-01     9s
   5   9.69952304e+04 -6.01157072e+03  7.33e-15 1.88e-01  7.26e-02    10s
   6   8.89995580e+04 -5.56568108e+02  7.55e-15 5.89e-01  5.37e-02    10s
   7   7.54344044e+04  2.74244329e+03  4.66e-15 3.77e-01  4.08e-02    11s
   8   5.99156363e+04  4.70149565e+03  6.66e-15 3.33e-01  2.82e-02    12s
   9   5.44008336e+04  7.30692844e+03  5.77e-15 2.58e-01  2.30e-02    12s
  10   4.73496609e+04  1.02074798e+04  5.77e-15 1.71e-01  1.71e-02    13s
  11   4.12787258e+04  1.17364071e+04  2.33e-14 1.38e-01  1.33e-02    14s
  12   3.87646083e+04  1.34125371e+04  1.67e-14 1.07e-01  1.11e-02    15s
  13   3.49378728e+04  1.47151452e+04  1.91e-14 9.29e-02  8.78e-03    15s
  14   3.32052819e+04  1.59982431e+04  1.83e-14 7.20e-02  7.35e-03    16s
  15   3.07450832e+04  1.69996716e+04  3.95e-14 6.15e-02  5.82e-03    17s
  16   2.91773136e+04  1.77140995e+04  2.84e-14 5.28e-02  4.84e-03    18s
  17   2.86007696e+04  1.85257031e+04  2.78e-14 4.41e-02  4.22e-03    19s
  18   2.79474389e+04  1.90095650e+04  2.40e-14 3.93e-02  3.74e-03    20s
  19   2.72684725e+04  1.96393186e+04  2.02e-14 3.29e-02  3.17e-03    20s
  20   2.63772829e+04  2.01163660e+04  7.06e-14 2.83e-02  2.60e-03    21s
  21   2.60149783e+04  2.05271934e+04  6.00e-14 2.45e-02  2.27e-03    22s
  22   2.54799417e+04  2.08645714e+04  5.04e-14 2.10e-02  1.91e-03    23s
  23   2.51827701e+04  2.12661997e+04  4.37e-14 1.72e-02  1.61e-03    23s
  24   2.49014352e+04  2.15485717e+04  3.97e-14 1.46e-02  1.38e-03    24s
  25   2.46833780e+04  2.17936328e+04  3.42e-14 1.21e-02  1.18e-03    25s
  26   2.44325339e+04  2.19594540e+04  3.26e-14 1.02e-02  1.01e-03    26s
  27   2.42852479e+04  2.21159300e+04  4.71e-14 8.61e-03  8.83e-04    27s
  28   2.40798441e+04  2.22164055e+04  3.51e-14 7.63e-03  7.60e-04    28s
  29   2.39574083e+04  2.23408628e+04  3.35e-14 6.44e-03  6.58e-04    28s
  30   2.38566266e+04  2.24272173e+04  4.30e-14 5.58e-03  5.81e-04    29s
  31   2.37382489e+04  2.24989993e+04  4.49e-14 4.84e-03  5.03e-04    30s
  32   2.36303872e+04  2.25673550e+04  4.02e-14 4.20e-03  4.32e-04    31s
  33   2.35621141e+04  2.26173635e+04  4.37e-14 3.70e-03  3.84e-04    32s
  34   2.35374904e+04  2.26840788e+04  7.26e-14 3.06e-03  3.44e-04    33s
  35   2.34667289e+04  2.27263538e+04  8.80e-14 2.63e-03  2.98e-04    34s
  36   2.34315622e+04  2.27381709e+04  8.79e-14 2.51e-03  2.80e-04    35s
  37   2.33768320e+04  2.27887601e+04  1.63e-13 2.00e-03  2.36e-04    36s
  38   2.33589004e+04  2.28047025e+04  1.78e-13 1.84e-03  2.22e-04    37s
  39   2.33045597e+04  2.28300585e+04  1.39e-13 1.59e-03  1.90e-04    38s
  40   2.32664085e+04  2.28567761e+04  3.28e-13 1.27e-03  1.64e-04    38s
  41   2.31985872e+04  2.28698142e+04  4.42e-13 1.13e-03  1.32e-04    39s
  42   2.31716502e+04  2.28819616e+04  4.03e-13 9.97e-04  1.16e-04    40s
  43   2.31531750e+04  2.28967264e+04  3.66e-13 8.45e-04  1.03e-04    41s
  44   2.31392716e+04  2.29133413e+04  5.86e-13 6.68e-04  9.00e-05    42s
  45   2.31174221e+04  2.29188926e+04  5.50e-13 6.06e-04  7.92e-05    43s
  46   2.30994347e+04  2.29295004e+04  4.77e-13 4.91e-04  6.76e-05    44s
  47   2.30898938e+04  2.29337026e+04  4.42e-13 4.45e-04  6.20e-05    44s
  48   2.30795039e+04  2.29363586e+04  5.23e-13 4.15e-04  5.69e-05    45s
  49   2.30680242e+04  2.29398057e+04  8.44e-13 3.78e-04  5.10e-05    46s
  50   2.30541845e+04  2.29425955e+04  9.92e-13 3.46e-04  4.46e-05    47s
  51   2.30495547e+04  2.29445392e+04  1.05e-12 3.23e-04  4.19e-05    48s
  52   2.30347973e+04  2.29473111e+04  1.38e-12 2.92e-04  3.51e-05    49s
  53   2.30300533e+04  2.29524826e+04  1.24e-12 2.36e-04  3.10e-05    50s
  54   2.30248258e+04  2.29547274e+04  1.15e-12 2.10e-04  2.79e-05    51s
  55   2.30191370e+04  2.29570490e+04  1.91e-12 1.86e-04  2.47e-05    52s
  56   2.30147369e+04  2.29587359e+04  1.67e-12 1.63e-04  2.23e-05    53s
  57   2.30089342e+04  2.29604520e+04  1.46e-12 1.43e-04  1.93e-05    54s
  58   2.30042727e+04  2.29617474e+04  1.10e-12 1.28e-04  1.70e-05    55s
  59   2.30019892e+04  2.29641871e+04  1.04e-12 1.02e-04  1.50e-05    56s
  60   2.29971161e+04  2.29648466e+04  1.05e-12 9.39e-05  1.29e-05    57s
  61   2.29951133e+04  2.29651547e+04  1.11e-12 9.03e-05  1.20e-05    58s
  62   2.29931504e+04  2.29659854e+04  1.57e-12 8.13e-05  1.08e-05    59s
  63   2.29905981e+04  2.29668635e+04  1.71e-12 7.13e-05  9.47e-06    59s
  64   2.29877991e+04  2.29675100e+04  1.48e-12 6.38e-05  8.12e-06    60s
  65   2.29862382e+04  2.29685541e+04  1.52e-12 5.24e-05  7.05e-06    61s
  66   2.29844868e+04  2.29688801e+04  1.47e-12 4.85e-05  6.24e-06    62s
  67   2.29828015e+04  2.29692488e+04  1.48e-12 4.44e-05  5.44e-06    62s
  68   2.29816915e+04  2.29700447e+04  2.80e-12 3.56e-05  4.66e-06    63s
  69   2.29811862e+04  2.29704306e+04  2.44e-12 3.17e-05  4.29e-06    64s
  70   2.29800611e+04  2.29707050e+04  2.59e-12 2.79e-05  3.74e-06    65s
  71   2.29791744e+04  2.29709443e+04  2.74e-12 2.52e-05  3.29e-06    66s
  72   2.29784616e+04  2.29712425e+04  3.51e-12 2.18e-05  2.89e-06    67s
  73   2.29776246e+04  2.29714406e+04  3.37e-12 1.95e-05  2.48e-06    68s
  74   2.29774353e+04  2.29716598e+04  3.91e-12 1.71e-05  2.31e-06    68s
  75   2.29769824e+04  2.29720751e+04  4.41e-12 1.26e-05  1.94e-06    69s
  76   2.29762011e+04  2.29722174e+04  4.42e-12 1.09e-05  1.58e-06    70s
  77   2.29757537e+04  2.29723842e+04  3.75e-12 9.02e-06  1.34e-06    71s
  78   2.29749908e+04  2.29724977e+04  1.29e-11 7.74e-06  9.99e-07    72s
  79   2.29748838e+04  2.29726797e+04  1.22e-11 5.70e-06  8.74e-07    73s
  80   2.29745375e+04  2.29728020e+04  7.99e-12 4.33e-06  6.87e-07    74s
  81   2.29741196e+04  2.29729421e+04  1.59e-11 3.27e-06  4.66e-07    75s
  82   2.29739685e+04  2.29730365e+04  1.27e-11 2.07e-06  3.65e-07    75s
  83   2.29738767e+04  2.29730803e+04  1.27e-11 1.49e-06  3.10e-07    76s
  84   2.29736524e+04  2.29731192e+04  1.48e-11 1.06e-06  2.08e-07    77s
  85   2.29735687e+04  2.29731346e+04  2.14e-11 8.96e-07  1.70e-07    78s
  86   2.29735089e+04  2.29731489e+04  2.46e-11 7.29e-07  1.41e-07    79s
  87   2.29734215e+04  2.29731809e+04  1.72e-11 3.65e-07  9.31e-08    80s
  88   2.29733842e+04  2.29731900e+04  2.62e-11 2.47e-07  7.49e-08    81s
  89   2.29733562e+04  2.29731986e+04  2.22e-11 1.64e-07  6.05e-08    81s
  90   2.29733240e+04  2.29731996e+04  7.48e-11 1.55e-07  4.80e-08    82s
  91   2.29733127e+04  2.29732007e+04  1.29e-10 1.44e-07  4.32e-08    83s
  92   2.29732493e+04  2.29732069e+04  2.92e-10 7.88e-08  1.66e-08    84s
  93   2.29732418e+04  2.29732110e+04  5.83e-09 4.40e-08  1.20e-08    85s
  94   2.29732298e+04  2.29732156e+04  3.16e-09 2.12e-09  5.35e-09    85s
  95   2.29732247e+04  2.29732157e+04  2.21e-08 1.65e-09  3.39e-09    86s
  96   2.29732242e+04  2.29732159e+04  2.09e-08 7.52e-10  3.12e-09    86s
  97   2.29732198e+04  2.29732159e+04  2.24e-08 6.14e-10  1.46e-09    87s
  98   2.29732161e+04  2.29732161e+04  7.99e-10 4.40e-11  2.73e-11    87s

Barrier solved model in 98 iterations and 87.27 seconds (44.82 work units)
Optimal objective 2.29732161e+04

Crossover log...

  533238 variables added to crossover basis                       90s
  538757 variables added to crossover basis                       95s
  543284 variables added to crossover basis                      100s
  544694 variables added to crossover basis                      105s
  545743 variables added to crossover basis                      110s
  546373 variables added to crossover basis                      115s
  547003 variables added to crossover basis                      120s

  344088 DPushes remaining with DInf 0.0000000e+00               125s
      32 DPushes remaining with DInf 0.0000000e+00               220s
       0 DPushes remaining with DInf 0.0000000e+00               221s

       7 PPushes remaining with PInf 0.0000000e+00               221s
       0 PPushes remaining with PInf 0.0000000e+00               222s

  Push phase complete: Pinf 0.0000000e+00, Dinf 1.5871977e-10    222s


Solved with barrier
Iteration    Objective       Primal Inf.    Dual Inf.      Time
   25352    2.2973216e+04   0.000000e+00   0.000000e+00    222s

Solved in 25352 iterations and 222.07 seconds (212.77 work units)
Optimal objective  2.297321609e+04
